(declare-fun e () String)
(declare-fun g () String)
(declare-fun b () String)
(declare-fun d () String)
(declare-fun f () String)
(declare-fun a () String)
(declare-fun h () String)
(assert (= b "c"))
(assert (= (str.++ h h a g) (str.++ b e)))
(assert (= (str.++ a g "gh" f) (str.++ d "f")))

(check-sat)
